3 15
377 354 425 
0 21 11 39 29 58 48 88 27 71 11 18 14 1
1 27 17 104 94 80 70 45 69 95 15 69 13 3
2 85 75 28 18 62 52 94 64 31 89 80 51 1
3 84 74 92 82 109 99 54 69 78 85 53 57 1
4 107 97 78 68 48 38 18 81 9 47 35 13 1
5 25 15 26 16 34 24 29 31 17 89 56 51 2
6 12 2 67 57 13 3 67 74 77 83 2 84 3
7 29 19 106 96 90 80 39 50 63 68 86 16 2
8 101 91 44 34 94 84 21 1 84 35 51 69 1
9 39 29 15 5 84 74 62 21 68 45 50 18 3
10 23 13 77 67 24 14 17 82 55 36 14 56 2
11 70 60 79 69 79 69 78 8 26 32 5 91 3
12 94 84 21 11 55 45 35 52 43 60 39 48 2
13 83 73 39 29 88 78 55 32 83 50 3 21 2
14 105 95 43 33 82 72 24 69 44 6 49 98 2
